27
1000 1000
843 669
808 898
446 216
594 248
305 442
313 651
25 673
584 364
583 967
912 427
866 854
277 266
762 137
46 676
715 454
260 37
681 875
364 322
44 307
476 192
174 404
686 277
528 24
38 387
754 946
876 704
234 803
